; benchmark generated from python API
(set-info :status unknown)
(declare-datatypes ((RealState 0)) (((RMk1 (rval1 Real)) (RMk2 (rval2 Real)))))
 (assert
 (forall ((|v11:0| Real) )(forall ((|v10:1| Real) )(forall ((|v9:2| Real) )(forall ((|v8:3| Real) )(exists ((|v7:4_st| RealState) (val!3704 Real) )(exists ((|v6:5_st| RealState) (val!3705 Real) )(exists ((|v5:6_st| RealState) (val!3706 Real) )(exists ((|v4:7_st| RealState) (val!3707 Real) )(forall ((|v3:8| Real) )(forall ((|v2:9| Real) )(forall ((|v1:10| Real) )(forall ((|v0:11| Real) )(let ((?x3133 (- 9.0)))
 (let ((?x1794 (* ?x3133 |v1:10|)))
 (let ((?x1841 (rval2 |v4:7_st|)))
 (let ((?x898 (* 5.0 ?x1841)))
 (let ((?x2840 (+ (+ (+ (* 18.0 (rval2 |v6:5_st|)) (* (- 14.0) (rval2 |v5:6_st|))) ?x898) ?x1794)))
 (let ((?x2755 (rval2 |v7:4_st|)))
 (let ((?x594 (- 11.0)))
 (let ((?x3125 (* ?x594 ?x2755)))
 (let ((?x1887 (+ (+ (+ (* (- 6.0) |v10:1|) (* (- 1.0) (rval2 |v5:6_st|))) ?x3125) (* (- 17.0) |v8:3|))))
 (let ((?x2889 (rval2 |v6:5_st|)))
 (let ((?x1372 (- 5.0)))
 (let ((?x176 (* ?x1372 ?x2889)))
 (let ((?x1693 (rval2 |v5:6_st|)))
 (let ((?x1292 (- 1.0)))
 (let ((?x2423 (* ?x1292 ?x1693)))
 (let ((?x168 (- 3.0)))
 (let ((?x1028 (+ (+ (+ (* 15.0 ?x2889) (* 8.0 ?x2889)) (* (- 14.0) ?x2755)) |v3:8|)))
 (let (($x1962 (or (<= ?x1028 ?x168) (<= (+ (+ (+ (* ?x594 ?x1693) (* 6.0 ?x2889)) ?x2423) ?x176) ?x594))))
 (let ((?x916 (* ?x1372 |v10:1|)))
 (let ((?x941 (+ (+ (+ (* 8.0 |v1:10|) (* (- 18.0) ?x1693)) (* (- 17.0) ?x1693)) ?x916)))
 (let ((?x1145 (* ?x3133 ?x2889)))
 (let ((?x1782 (+ (+ (+ (* (- 16.0) ?x2755) (* 2.0 |v11:0|)) (* (- 4.0) ?x2889)) ?x1145)))
 (let ((?x417 (- 6.0)))
 (let ((?x1326 (* 5.0 ?x2755)))
 (let (($x2708 (<= (+ (+ (+ (* ?x1292 |v11:0|) (* 11.0 |v10:1|)) (* 19.0 |v1:10|)) ?x1326) ?x417)))
 (let ((?x716 (* 15.0 |v3:8|)))
 (let (($x3009 (<= (+ (+ (+ (* (- 8.0) ?x2889) ?x1145) (* 10.0 ?x2755)) ?x716) 13.0)))
 (let (($x1822 (and (or (and $x3009 $x2708) (or (<= ?x1782 10.0) (<= ?x941 ?x168))) (or $x1962 (or (<= ?x1887 16.0) (<= ?x2840 3.0))))))
 (let ((?x3209 (+ (+ (+ (* 3.0 ?x2889) (* ?x417 |v2:9|)) (* 14.0 ?x2889)) (* ?x1372 |v11:0|))))
 (let ((?x2256 (- 7.0)))
 (let ((?x349 (* ?x2256 |v3:8|)))
 (let (($x1103 (<= (+ (+ (+ ?x349 (* (- 18.0) |v0:11|)) (* 19.0 |v9:2|)) ?x349) 1.0)))
 (let ((?x2770 (+ (+ (+ (* 2.0 |v2:9|) (* (- 16.0) ?x2889)) (* 13.0 |v11:0|)) ?x898)))
 (let ((?x368 (* 14.0 ?x2889)))
 (let (($x1585 (<= (+ (+ (+ (* 5.0 |v11:0|) (* 15.0 ?x2755)) (* ?x1292 |v8:3|)) ?x368) 9.0)))
 (let ((?x1836 (* 13.0 |v8:3|)))
 (let (($x3091 (<= (+ (+ (+ (* 18.0 ?x1841) (* 9.0 ?x2755)) (* ?x2256 |v8:3|)) ?x1836) ?x2256)))
 (let ((?x1433 (- 12.0)))
 (let (($x2166 (<= (+ (+ (+ ?x1326 (* 15.0 ?x2755)) (* 16.0 ?x1841)) (* 19.0 |v0:11|)) ?x1433)))
 (let ((?x1828 (- 2.0)))
 (let ((?x1576 (* ?x1828 |v0:11|)))
 (let ((?x1619 (+ (+ (+ (* 12.0 |v1:10|) (* (- 15.0) |v2:9|)) (* 3.0 ?x1693)) ?x1576)))
 (let (($x263 (or (and (<= ?x1619 7.0) (or $x2166 $x3091)) (or (or $x1585 (<= ?x2770 20.0)) (or $x1103 (<= ?x3209 18.0))))))
 (let ((?x2812 (* 10.0 ?x1841)))
 (let (($x1793 (<= (+ (+ (+ ?x1145 (* (- 17.0) ?x1693)) (* 9.0 |v9:2|)) ?x2812) ?x1292)))
 (let (($x386 (<= (+ (+ (+ (* 18.0 |v2:9|) ?x1841) (* ?x1292 ?x2889)) (* ?x1372 |v9:2|)) 12.0)))
 (let ((?x2145 (- 14.0)))
 (let ((?x702 (* 2.0 |v1:10|)))
 (let ((?x1513 (+ (+ (* 13.0 |v0:11|) (* ?x417 |v0:11|)) ?x702)))
 (let ((?x1939 (- 15.0)))
 (let ((?x280 (* ?x1433 |v0:11|)))
 (let (($x158 (<= (+ (+ (+ (* (- 17.0) |v3:8|) (* ?x594 |v3:8|)) (* ?x3133 |v10:1|)) ?x280) ?x1939)))
 (let (($x1274 (and (and $x158 (<= (+ ?x1513 (* (- 17.0) ?x1841)) ?x2145)) (or $x386 $x1793))))
 (let ((?x1908 (+ (+ (+ (* 2.0 |v2:9|) (* (- 18.0) |v10:1|)) (* 10.0 |v0:11|)) (* (- 10.0) ?x2755))))
 (let ((?x261 (- 8.0)))
 (let ((?x2519 (- 17.0)))
 (let ((?x1040 (* ?x2519 ?x1693)))
 (let (($x1197 (<= (+ (+ (+ (* 4.0 ?x2889) (* 19.0 ?x1841)) (* 17.0 |v1:10|)) ?x1040) ?x261)))
 (let ((?x2589 (* 6.0 |v0:11|)))
 (let (($x1635 (<= (+ (+ (+ (* 6.0 |v9:2|) (* 13.0 ?x1841)) (* ?x1372 |v2:9|)) ?x2589) 5.0)))
 (let ((?x1647 (+ (+ (+ (* ?x594 |v0:11|) (* 15.0 ?x2889)) (* (- 16.0) |v0:11|)) (* 12.0 ?x1841))))
 (let ((?x2235 (+ (+ (+ (* 15.0 ?x2889) ?x280) (* 8.0 |v10:1|)) (* (- 20.0) ?x2889))))
 (let ((?x2696 (* 12.0 ?x1693)))
 (let (($x3057 (<= (+ (+ (+ (* ?x594 |v3:8|) (* 6.0 |v11:0|)) (* 9.0 |v0:11|)) ?x2696) 8.0)))
 (let ((?x2560 (* ?x2256 |v1:10|)))
 (let (($x448 (<= (+ (+ (+ (* 20.0 |v11:0|) (* 0.0 |v0:11|)) (* 20.0 ?x2889)) ?x2560) ?x3133)))
 (let ((?x512 (* 7.0 |v3:8|)))
 (let (($x1287 (<= (+ (+ (+ (* ?x1372 |v1:10|) (* ?x261 ?x1693)) (* 18.0 ?x1693)) ?x512) ?x1939)))
 (let ((?x719 (+ (+ (+ (* (- 18.0) ?x2889) (* ?x1292 ?x2889)) (* 7.0 ?x1693)) (* (- 10.0) ?x1693))))
 (let ((?x1874 (- 13.0)))
 (let ((?x1283 (* ?x1874 ?x2889)))
 (let (($x1725 (<= (+ (+ (+ (* 13.0 |v3:8|) (* ?x1433 ?x1841)) (* ?x1433 ?x2755)) ?x1283) 20.0)))
 (let ((?x2898 (- 20.0)))
 (let ((?x3095 (* 8.0 |v3:8|)))
 (let (($x642 (<= (+ (+ (+ (* 11.0 |v8:3|) (* 2.0 |v2:9|)) (* ?x2145 |v11:0|)) ?x3095) ?x2898)))
 (let ((?x351 (+ (+ (* (- 4.0) |v0:11|) (* ?x1828 |v1:10|)) (* ?x2145 |v1:10|))))
 (let (($x1289 (or (or (<= (+ ?x351 (* ?x594 |v11:0|)) ?x2145) $x642) (and $x1725 (<= ?x719 13.0)))))
 (let (($x2366 (and (or $x1289 (or (and $x1287 $x448) (or $x3057 (<= ?x2235 ?x2256)))) (or (or (or (<= ?x1647 ?x594) $x1635) (and $x1197 (<= ?x1908 ?x2145))) $x1274))))
 (let (($x2462 (<= (+ (+ (+ (* 6.0 |v8:3|) (* ?x2256 ?x2755)) ?x3125) (* 13.0 |v3:8|)) 4.0)))
 (let (($x881 (<= (+ (+ (+ (* 4.0 |v1:10|) |v9:2|) (* 16.0 ?x1693)) (* ?x2898 |v1:10|)) 0.0)))
 (let ((?x190 (+ (+ (+ (* ?x417 ?x1841) (* 6.0 ?x2755)) (* 7.0 ?x2889)) (* ?x1433 ?x1693))))
 (let ((?x3153 (- 4.0)))
 (let ((?x1558 (* 4.0 |v0:11|)))
 (let (($x1059 (<= (+ (+ (+ (* ?x2145 ?x1841) (* ?x1292 |v2:9|)) (* 16.0 ?x2889)) ?x1558) ?x3153)))
 (let ((?x2037 (+ (+ (+ (* ?x261 |v9:2|) (* (- 16.0) |v2:9|)) (* 10.0 |v3:8|)) (* 0.0 ?x1841))))
 (let ((?x704 (* 15.0 |v2:9|)))
 (let (($x424 (<= (+ (+ (+ (* 19.0 |v3:8|) (* ?x417 |v3:8|)) (* 8.0 ?x2755)) ?x704) ?x1292)))
 (let ((?x1071 (* 12.0 |v2:9|)))
 (let (($x790 (<= (+ (+ (+ (* ?x1292 |v3:8|) (* 3.0 ?x2889)) (* 17.0 ?x1693)) ?x1071) 8.0)))
 (let (($x2226 (or (<= (+ (+ (+ (* ?x2898 ?x1841) (* ?x1828 ?x2889)) ?x916) ?x1283) 11.0) $x790)))
 (let (($x2406 (or (and $x2226 (or $x424 (<= ?x2037 2.0))) (and (or $x1059 (<= ?x190 6.0)) (and $x881 $x2462)))))
 (let ((?x1181 (* 5.0 |v0:11|)))
 (let (($x561 (<= (+ (+ (+ ?x368 (* (- 16.0) |v0:11|)) (* 12.0 |v1:10|)) ?x1181) 8.0)))
 (let ((?x3207 (* 19.0 ?x2889)))
 (let ((?x18 (+ (+ |v1:10| (* 9.0 |v3:8|)) (* (- 16.0) |v1:10|))))
 (let ((?x1564 (+ (+ (+ (* 8.0 ?x2755) (* (- 18.0) |v2:9|)) (* ?x2898 |v8:3|)) (* ?x1874 ?x1841))))
 (let (($x2569 (<= (+ (+ (+ ?x704 (* 12.0 |v8:3|)) ?x3207) (* (- 19.0) ?x2755)) 8.0)))
 (let ((?x959 (* 16.0 ?x2889)))
 (let (($x586 (<= (+ (+ (+ (* 16.0 ?x1841) (* ?x1939 |v0:11|)) (* 13.0 |v2:9|)) ?x959) ?x261)))
 (let ((?x336 (* 3.0 |v3:8|)))
 (let (($x1570 (<= (+ (+ (+ (* (- 19.0) |v10:1|) (* ?x1372 |v8:3|)) (* 7.0 ?x1841)) ?x336) 12.0)))
 (let (($x581 (<= (+ (+ (+ ?x1841 (* ?x1828 ?x2889)) (* ?x417 |v9:2|)) (* ?x1874 |v8:3|)) 18.0)))
 (let (($x2171 (and (and (and $x581 $x1570) (and $x586 $x2569)) (or (<= ?x1564 7.0) (and (<= (+ ?x18 ?x3207) 3.0) $x561)))))
 (let ((?x1833 (+ (+ (+ (* ?x1292 |v10:1|) (* 18.0 |v11:0|)) (* (- 19.0) |v10:1|)) (* ?x1828 |v9:2|))))
 (let ((?x2186 (- 16.0)))
 (let ((?x504 (* ?x2186 |v0:11|)))
 (let (($x1613 (<= (+ (+ (+ (* 13.0 |v10:1|) (* ?x3153 |v9:2|)) (* ?x2145 |v9:2|)) ?x504) 2.0)))
 (let ((?x209 (* ?x1292 |v8:3|)))
 (let (($x1029 (<= (+ (+ (+ (* ?x1433 |v9:2|) (* 6.0 |v1:10|)) (* (- 18.0) |v1:10|)) ?x209) ?x2519)))
 (let ((?x1958 (+ (+ (+ (* ?x2256 ?x1841) (* 4.0 |v2:9|)) (* 20.0 |v10:1|)) (* 11.0 ?x1841))))
 (let ((?x489 (* ?x168 |v3:8|)))
 (let (($x557 (<= (+ (+ (+ (* ?x1939 |v10:1|) (* ?x2898 |v3:8|)) (* 7.0 |v2:9|)) ?x489) 0.0)))
 (let ((?x924 (+ (+ (+ (* 18.0 ?x2889) (* ?x1372 |v1:10|)) (* ?x1939 ?x1841)) (* 8.0 |v11:0|))))
 (let ((?x2514 (+ (+ (+ (* ?x1874 |v3:8|) (* ?x168 |v10:1|)) (* (- 18.0) ?x1693)) (* ?x1874 ?x2755))))
 (let (($x1023 (and (and (<= ?x2514 9.0) (and (<= ?x924 0.0) $x557)) (and (or (<= ?x1958 ?x1433) $x1029) (or $x1613 (<= ?x1833 ?x2145))))))
 (let ((?x2083 (* 10.0 ?x2889)))
 (let ((?x104 (* 8.0 |v1:10|)))
 (let ((?x1108 (+ (+ (* 3.0 |v0:11|) (* ?x3133 |v3:8|)) ?x104)))
 (let (($x2792 (<= (+ (+ (+ (* ?x2186 |v8:3|) ?x209) (* 7.0 |v2:9|)) (* ?x1372 |v8:3|)) ?x1828)))
 (let (($x1873 (<= (+ (+ (+ (* 4.0 |v8:3|) ?x176) (* ?x417 |v8:3|)) (* ?x2898 |v2:9|)) 20.0)))
 (let ((?x1880 (* 0.0 |v1:10|)))
 (let (($x1003 (<= (+ (+ (+ (* 6.0 ?x1693) (* ?x1828 |v10:1|)) (* ?x3153 ?x2889)) ?x1880) 11.0)))
 (let ((?x2545 (+ (+ (+ (* ?x1939 |v11:0|) (* 18.0 |v10:1|)) (* ?x2519 |v1:10|)) (* ?x3153 |v10:1|))))
 (let ((?x2189 (* ?x2519 |v3:8|)))
 (let ((?x510 (+ (+ (+ (* 20.0 |v3:8|) (* (- 18.0) ?x1841)) (* 16.0 ?x2755)) ?x2189)))
 (let ((?x2921 (* 13.0 |v11:0|)))
 (let (($x327 (<= (+ (+ (+ (* ?x261 |v1:10|) (* 6.0 |v9:2|)) (* ?x2186 |v10:1|)) ?x2921) ?x1939)))
 (let (($x2028 (<= (+ (+ (+ (* 5.0 |v11:0|) (* 2.0 |v2:9|)) (* ?x1292 |v3:8|)) ?x2083) ?x1828)))
 (let (($x1970 (and (or (and $x2028 $x327) (and (<= ?x510 ?x2519) (<= ?x2545 ?x168))) (and (or $x1003 $x1873) (and $x2792 (<= (+ ?x1108 ?x2083) 7.0))))))
 (let (($x3027 (not (= |v4:7_st| (RMk1 val!3707)))))
 (let (($x820 (not (= |v5:6_st| (RMk1 val!3706)))))
 (let (($x1286 (not (= |v6:5_st| (RMk1 val!3705)))))
 (let (($x2483 (not (= |v7:4_st| (RMk1 val!3704)))))
 (and $x2483 $x1286 $x820 $x3027 (or (or (or $x1970 $x1023) (and $x2171 $x2406)) (and $x2366 (and $x263 $x1822))))))))))))))))))))))))))))))))))))))))))))))))))))))))))))))))))))))))))))))))))))))))))))))))))))))))))))))))))))))))))))))))))))))))))
 )
 )
 )
 )
 )
 )
 )
 )
 )
 )
 )
 )
(check-sat)
